HmaxDs = 0.500000
HmaxUB_percent = 1.180435
HmaxUB_real = 2405.089095
FTnetDs = 1.000000
FTnetUB_percent = 2.225747
FTnetUB_real = 7865.791665
TIFgap = 0.500000
LimCIPF = 67.369303365
SCIP version 1.1.0 [precision: 8 byte] [memory: block] [mode: optimized] [LP solver: Clp 1.8.2]
Copyright (c) 2002-2008 Konrad-Zuse-Zentrum fuer Informationstechnik Berlin (ZIB)

reading user parameter file </home/fabio/docs/hierarquia/models/scip.set>

read problem <data.N30.I1.s1.cluster4.T8.GL4.W2.TIFgap0.5.mps.gz>
============

original problem has 1601 variables (812 bin, 0 int, 0 impl, 789 cont) and 367 constraints

solve problem
=============

presolving:
(round 1) 3 del vars, 3 del conss, 4 chg bounds, 0 chg sides, 98 chg coeffs, 0 upgd conss, 0 impls, 112 clqs
(round 2) 5 del vars, 3 del conss, 4 chg bounds, 1 chg sides, 98 chg coeffs, 0 upgd conss, 0 impls, 112 clqs
(round 3) 5 del vars, 3 del conss, 4 chg bounds, 3 chg sides, 98 chg coeffs, 0 upgd conss, 0 impls, 112 clqs
(round 4) 5 del vars, 4 del conss, 4 chg bounds, 3 chg sides, 98 chg coeffs, 113 upgd conss, 0 impls, 112 clqs
presolving (5 rounds):
 5 deleted vars, 4 deleted constraints, 4 tightened bounds, 0 added holes, 3 changed sides, 98 changed coefficients
 43054 implications, 112 cliques
presolved problem has 1596 variables (812 bin, 0 int, 0 impl, 784 cont) and 363 constraints
      1 constraints of type <knapsack>
    112 constraints of type <setppc>
    250 constraints of type <linear>
Presolving Time: 0.80

 time | node  | left  |LP iter| mem |mdpt |frac |vars |cons |ccons|cols |rows |cuts |confs|strbr|  dualbound   | primalbound  |  gap   
  0.9s|     1 |     0 |   547 |4843k|   0 | 165 |1596 | 363 | 363 |1596 | 363 |   0 |   0 |   0 | 4.384381e+01 |      --      |    Inf 
  1.8s|     1 |     0 |  2811 |5325k|   0 | 147 |1596 | 363 | 363 |1596 | 408 |  45 |   0 |   0 | 4.071179e+02 |      --      |    Inf 
  2.5s|     1 |     0 |  3305 |5472k|   0 | 148 |1596 | 363 | 363 |1596 | 438 |  75 |   0 |   0 | 7.516072e+02 |      --      |    Inf 
  3.4s|     1 |     0 |  3591 |5528k|   0 | 149 |1596 | 363 | 363 |1596 | 452 |  89 |   0 |   0 | 9.825847e+02 |      --      |    Inf 
  4.0s|     1 |     0 |  3706 |5547k|   0 | 153 |1596 | 363 | 363 |1596 | 456 |  93 |   0 |   0 | 1.156166e+03 |      --      |    Inf 
  4.5s|     1 |     0 |  3739 |5547k|   0 | 154 |1596 | 363 | 363 |1596 | 457 |  94 |   0 |   0 | 1.161027e+03 |      --      |    Inf 
  8.4s|     1 |     2 |  3747 |5559k|   0 | 154 |1596 | 363 | 363 |1596 | 457 |  94 |   0 |  21 | 1.161027e+03 |      --      |    Inf 
 62.8s|   100 |     8 | 50444 |5691k|  14 | 129 |1596 | 431 | 338 |1596 | 417 |  94 |  68 | 850 | 1.455047e+03 |      --      |    Inf 
  136s|   200 |    10 |156267 |5757k|  29 |  99 |1596 | 478 | 296 |1596 | 417 |  94 | 115 |1271 | 1.455047e+03 |      --      |    Inf 
  174s|   300 |    15 |217953 |5803k|  29 |  93 |1596 | 536 | 301 |1596 | 417 |  94 | 173 |1599 | 2.475462e+03 |      --      |    Inf 
  213s|   400 |    10 |255091 |5833k|  29 |   - |1596 | 605 | 363 |1596 | 417 |  94 | 242 |1676 | 3.694827e+03 |      --      |    Inf 

SCIP Status        : problem is solved [infeasible]
Solving Time (sec) : 221.68
Solving Nodes      : 410
Primal Bound       : +1.00000000000000e+20 (0 solutions)
Dual Bound         : +1.00000000000000e+20
Gap                : 0.00 %

primal solution:
================

no solution available

Statistics
==========

SCIP Status        : problem is solved [infeasible]
Solving Time       :     221.68
Original Problem   :
  Problem name     : labtel
  Variables        : 1601 (812 binary, 0 integer, 0 implicit integer, 789 continuous)
  Constraints      : 367 initial, 367 maximal
Presolved Problem  :
  Problem name     : t_labtel
  Variables        : 1596 (812 binary, 0 integer, 0 implicit integer, 784 continuous)
  Constraints      : 363 initial, 610 maximal
Presolvers         :       Time  FixedVars   AggrVars   ChgTypes  ChgBounds   AddHoles    DelCons   ChgSides   ChgCoefs
  trivial          :       0.00          0          0          0          0          0          0          0          0
  dualfix          :       0.00          0          0          0          0          0          0          0          0
  boundshift       :       0.00          0          0          0          0          0          0          0          0
  inttobinary      :       0.00          0          0          0          0          0          0          0          0
  implics          :       0.00          0          0          0          0          0          0          0          0
  probing          :       0.77          0          0          0          0          0          0          0          0
  knapsack         :       0.00          0          0          0          0          0          0          0          0
  setppc           :       0.00          0          0          0          0          0          0          0          0
  linear           :       0.02          0          5          0          4          0          4          3         98
  logicor          :       0.00          0          0          0          0          0          0          0          0
  bounddisjunction :       0.00          0          0          0          0          0          0          0          0
  root node        :          -         29          -          -         29          -          -          -          -
Constraints        :     Number  #Separate #Propagate    #EnfoLP    #EnfoPS    Cutoffs    DomReds       Cuts      Conss   Children
  integral         :          0          0          0        209          0          0          0          0          0        418
  knapsack         :          1          6       3614          0          0          0          0          0          0          0
  setppc           :        112          6       3614          0          0          1      46648          0          0          0
  linear           :        250          6       3613          0          0         70      22301          3          0          0
  logicor          :          0+         0        565          0          0         10        239          0          0          0
  bounddisjunction :          0+         0        246          0          0          0          6          0          0          0
  countsols        :          0          0          0          0          0          0          0          0          0          0
Constraint Timings :  TotalTime   Separate  Propagate     EnfoLP     EnfoPS
  integral         :      50.25       0.00       0.00      50.25       0.00
  knapsack         :       0.00       0.00       0.00       0.00       0.00
  setppc           :       0.30       0.00       0.30       0.00       0.00
  linear           :       1.18       0.02       1.16       0.00       0.00
  logicor          :       0.02       0.00       0.02       0.00       0.00
  bounddisjunction :       0.01       0.00       0.01       0.00       0.00
  countsols        :       0.00       0.00       0.00       0.00       0.00
Propagators        :       Time      Calls    Cutoffs    DomReds
  rootredcost      :       0.00          0          0          0
  pseudoobj        :       0.15       1565          1          0
Conflict Analysis  :       Time      Calls    Success  Conflicts   Literals    Reconvs ReconvLits   LP Iters
  propagation      :       0.03         81         80        385       45.7          0        0.0          -
  infeasible LP    :       0.19        126         22        160       49.1          0        0.0          0
  bound exceed. LP :       0.00          0          0          0        0.0          0        0.0          0
  strong branching :       0.00          0          0          0        0.0          0        0.0          0
  pseudo solution  :       0.00          0          0          0        0.0          0        0.0          -
  applied globally :          -          -          -        251       20.6          -          -          -
  applied locally  :          -          -          -          0        0.0          -          -          -
Separators         :       Time      Calls    Cutoffs    DomReds       Cuts      Conss
  cut pool         :       0.00          5          -          -         11          -    (maximal pool size: 142)
  redcost          :       0.00        214          0          0          0          0
  impliedbounds    :       0.00          6          0          0          0          0
  intobj           :       0.00          0          0          0          0          0
  gomory           :       0.22          6          0          0         22          0
  strongcg         :       0.15          6          0          0          0          0
  cmir             :       1.28          6          0          0        122          0
  flowcover        :       1.41          6          0          0         16          0
  clique           :       0.03          6          0          0          0          0
  zerohalf         :       0.00          0          0          0          0          0
  mcf              :       0.00          0          0          0          0          0
Pricers            :       Time      Calls       Vars
  problem variables:       0.00          0          0
Branching Rules    :       Time      Calls    Cutoffs    DomReds       Cuts      Conss   Children
  relpscost        :      50.24        209          0          0          0          0        418
  pscost           :       0.00          0          0          0          0          0          0
  inference        :       0.00          0          0          0          0          0          0
  mostinf          :       0.00          0          0          0          0          0          0
  leastinf         :       0.00          0          0          0          0          0          0
  fullstrong       :       0.00          0          0          0          0          0          0
  allfullstrong    :       0.00          0          0          0          0          0          0
  random           :       0.00          0          0          0          0          0          0
Primal Heuristics  :       Time      Calls      Found
  LP solutions     :       0.00          -          0
  pseudo solutions :       0.00          -          0
  oneopt           :       0.00          0          0
  coefdiving       :       0.00          0          0
  pscostdiving     :       0.00          0          0
  fracdiving       :       0.00          0          0
  veclendiving     :       0.00          0          0
  objpscostdiving  :       0.00          0          0
  rootsoldiving    :       0.00          0          0
  linesearchdiving :       0.00          0          0
  guideddiving     :       0.00          0          0
  crossover        :       0.00          0          0
  feaspump         :       0.36          1          0
  simplerounding   :       0.00          0          0
  rounding         :       0.01        165          0
  shifting         :       0.13         27          0
  intshifting      :       0.02          1          0
  fixandinfer      :       0.00          0          0
  intdiving        :       0.00          0          0
  actconsdiving    :       0.00          0          0
  octane           :       0.00          0          0
  rens             :       2.75          1          0
  rins             :       0.00          0          0
  localbranching   :       0.00          0          0
  mutation         :       0.00          0          0
  dins             :       0.00          0          0
LP                 :       Time      Calls Iterations  Iter/call   Iter/sec
  primal LP        :       0.14          3        129      43.00     921.43
  dual LP          :     161.77        437     270908     619.93    1674.65
  barrier LP       :       0.00          0          0       0.00          -
  diving/probing LP:       0.32         21       1900      90.48    5937.50
  strong branching :      50.16       1686     184178     109.24    3671.81
    (at root node) :          -         21       2777     132.24          -
  conflict analysis:       0.00          0          0       0.00          -
B&B Tree           :
  number of runs   :          1
  nodes            :        410
  nodes (total)    :        410
  nodes left       :          0
  max depth        :         29
  max depth (total):         29
  backtracks       :         39 (9.5%)
  delayed cutoffs  :          9
  repropagations   :        330 (5753 domain reductions, 7 cutoffs)
  avg switch length:       3.49
  switching time   :       0.41
Solution           :
  Solutions found  :          0 (0 improvements)
  Primal Bound     : infeasible
  Dual Bound       :          -
  Gap              :       0.00 %
  Root Dual Bound  : +1.16102707760281e+03
